\* ILP *\
Maximize
Obj: 14.9165379441 yv_0_0 + 2.76877832956 yv_0_1 + 0.513935168268 yv_0_2
 + 0.0953956314821 yv_0_3 + 19.5824598372 yv_10_0 + 3.63485754134 yv_10_1
 + 0.674695082013 yv_10_2 + 0.125235569349 yv_10_3 + 15.4299695037 yv_11_0
 + 2.86408048221 yv_11_1 + 0.531624965726 yv_11_2 + 0.0986791767686 yv_11_3
 + 12.1151832939 yv_12_0 + 2.24879640897 yv_12_1 + 0.417417150556 yv_12_2
 + 0.0774801475504 yv_12_3 + 2.23387766312 yv_13_0 + 0.414647962398 yv_13_1
 + 0.0769661363106 yv_13_2 + 0.0142863022992 yv_13_3 + 2.72929408034 yv_14_0
 + 0.506606179865 yv_14_1 + 0.0940352391215 yv_14_2 + 0.0174546354705 yv_14_3
 + 19.8076491177 yv_15_0 + 3.6766567311 yv_15_1 + 0.682453765109 yv_15_2
 + 0.126675720791 yv_15_3 + 0.585492129446 yv_16_0 + 0.10867789337 yv_16_1
 + 0.0201725760492 yv_16_2 + 0.00374439374779 yv_16_3 + 16.1325600591 yv_17_0
 + 2.99449395425 yv_17_1 + 0.555832056985 yv_17_2 + 0.103172449266 yv_17_3
 + 14.3130306722 yv_18_0 + 2.65675650101 yv_18_1 + 0.493141897571 yv_18_2
 + 0.091536025619 yv_18_3 + 11.3225170264 yv_19_0 + 2.10166326103 yv_19_1
 + 0.390106586058 yv_19_2 + 0.0724108144764 yv_19_3 + 6.09812571747 yv_1_0
 + 1.13192205864 yv_1_1 + 0.210105138235 yv_1_2 + 0.0389993010346 yv_1_3
 + 16.3937796245 yv_20_0 + 3.04298101437 yv_20_1 + 0.564832129376 yv_20_2
 + 0.104843024938 yv_20_3 + 12.4754861428 yv_21_0 + 2.31567511259 yv_21_1
 + 0.429831043509 yv_21_2 + 0.0797843898567 yv_21_3 + 3.94531619535 yv_22_0
 + 0.732321804558 yv_22_1 + 0.135932127839 yv_22_2 + 0.0252314532543 yv_22_3
 + 13.0069328449 yv_23_0 + 2.41432120041 yv_23_1 + 0.448141535615 yv_23_2
 + 0.0831831472585 yv_23_3 + 4.0894373349 yv_24_0 + 0.759073286003 yv_24_1
 + 0.14089768502 yv_24_2 + 0.0261531501769 yv_24_3 + 8.65627594459 yv_25_0
 + 1.60676085429 yv_25_1 + 0.298243778204 yv_25_2 + 0.0553594214096 yv_25_3
 + 16.3037039123 yv_26_0 + 3.02626133847 yv_26_1 + 0.561728656138 yv_26_2
 + 0.104266964361 yv_26_3 + 6.80972384402 yv_27_0 + 1.26400749828 yv_27_1
 + 0.234622576818 yv_27_2 + 0.0435501795896 yv_27_3 + 9.23276050281 yv_28_0
 + 1.71376678007 yv_28_1 + 0.318106006929 yv_28_2 + 0.0590462090997 yv_28_3
 + 5.98102729158 yv_29_0 + 1.11018647997 yv_29_1 + 0.206070623025 yv_29_2
 + 0.0382504222851 yv_29_3 + 11.511676022 yv_2_0 + 2.13677458042 yv_2_1
 + 0.396623879859 yv_2_2 + 0.0736205416873 yv_2_3 + 5.71980772613 yv_30_0
 + 1.06169941985 yv_30_1 + 0.197070550634 yv_30_2 + 0.036579846613 yv_30_3
 + 8.48513209136 yv_31_0 + 1.57499347008 yv_31_1 + 0.292347179051 yv_31_2
 + 0.0542649063141 yv_31_3 + 16.7180521885 yv_32_0 + 3.10317184762 yv_32_1
 + 0.576004633034 yv_32_2 + 0.106916843014 yv_32_3 + 16.0965297742 yv_33_0
 + 2.98780608389 yv_33_1 + 0.55459066769 yv_33_2 + 0.102942025035 yv_33_3
 + 5.46759573191 yv_34_0 + 1.01488432732 yv_34_1 + 0.188380825567 yv_34_2
 + 0.0349668769986 yv_34_3 + 5.19736859524 yv_35_0 + 0.964725299612 yv_35_1
 + 0.179070405852 yv_35_2 + 0.0332386952688 yv_35_3 + 5.88194400813 yv_36_0
 + 1.09179483648 yv_36_1 + 0.202656802463 yv_36_2 + 0.0376167556508 yv_36_3
 + 17.5917865971 yv_37_0 + 3.26535270388 yv_37_1 + 0.606108323446 yv_37_2
 + 0.112504630607 yv_37_3 + 13.3041826953 yv_38_0 + 2.4694961309 yv_38_1
 + 0.458382997302 yv_38_2 + 0.0850841471613 yv_38_3 + 0.378317991335 yv_39_0
 + 0.0702226387932 yv_39_1 + 0.013034587601 yv_39_2 + 0.00241945442165 yv_39_3
 + 13.5293719758 yv_3_0 + 2.51129532065 yv_3_1 + 0.466141680397 yv_3_2
 + 0.0865242986027 yv_3_3 + 18.1772787265 yv_4_0 + 3.37403059726 yv_4_1
 + 0.626280899495 yv_4_2 + 0.116249024354 yv_4_3 + 15.7452344965 yv_5_0
 + 2.92259934787 yv_5_1 + 0.54248712206 yv_5_2 + 0.100695388787 yv_5_3
 + 13.1420464133 yv_6_0 + 2.43940071427 yv_6_1 + 0.452796745473 yv_6_2
 + 0.0840472381234 yv_6_3 + 7.32315540369 yv_7_0 + 1.35930965093 yv_7_1
 + 0.252312374276 yv_7_2 + 0.0468337248762 yv_7_3 + 13.8086066837 yv_8_0
 + 2.56312631595 yv_8_1 + 0.475762447436 yv_8_2 + 0.0883100863901 yv_8_3
 + 18.5015512905 yv_9_0 + 3.43422143051 yv_9_1 + 0.637453403153 yv_9_2
 + 0.11832284243 yv_9_3
Subject To
_C1: sv_0 + sv_1 + sv_10 + sv_11 + sv_12 + sv_13 + sv_14 + sv_15 + sv_16
 + sv_17 + sv_18 + sv_19 + sv_2 + sv_20 + sv_21 + sv_22 + sv_23 + sv_24
 + sv_25 + sv_26 + sv_27 + sv_28 + sv_29 + sv_3 + sv_30 + sv_31 + sv_32
 + sv_33 + sv_34 + sv_35 + sv_36 + sv_37 + sv_38 + sv_39 + sv_4 + sv_5 + sv_6
 + sv_7 + sv_8 + sv_9 = 4
_C10: sv_8 <= 3
_C11: sv_9 <= 3
_C12: sv_10 <= 3
_C13: sv_11 <= 3
_C14: sv_12 <= 3
_C15: sv_13 <= 3
_C16: sv_14 <= 3
_C17: sv_15 <= 3
_C18: sv_16 <= 3
_C19: sv_17 <= 3
_C2: sv_0 <= 3
_C20: sv_18 <= 3
_C21: sv_19 <= 3
_C22: sv_20 <= 3
_C23: sv_21 <= 3
_C24: sv_22 <= 3
_C25: sv_23 <= 3
_C26: sv_24 <= 3
_C27: sv_25 <= 3
_C28: sv_26 <= 3
_C29: sv_27 <= 3
_C3: sv_1 <= 3
_C30: sv_28 <= 3
_C31: sv_29 <= 3
_C32: sv_30 <= 3
_C33: sv_31 <= 3
_C34: sv_32 <= 3
_C35: sv_33 <= 3
_C36: sv_34 <= 3
_C37: sv_35 <= 3
_C38: sv_36 <= 3
_C39: sv_37 <= 3
_C4: sv_2 <= 3
_C40: sv_38 <= 3
_C41: sv_39 <= 3
_C42: sv_0 + sv_1 + sv_10 + sv_11 + sv_12 + sv_13 + sv_14 + sv_15 + sv_16
 + sv_17 + sv_19 + sv_2 + sv_28 + sv_3 + sv_31 + sv_32 + sv_33 + sv_34 + sv_35
 + sv_36 + sv_39 + sv_4 + sv_5 + sv_6 + sv_7 + sv_8 + sv_9 - yv_0_0 - yv_0_1
 - yv_0_2 - yv_0_3 >= 0
_C43: sv_0 + sv_1 + sv_10 + sv_11 + sv_12 + sv_13 + sv_15 + sv_16 + sv_17
 + sv_19 + sv_2 + sv_22 + sv_23 + sv_24 + sv_3 + sv_31 + sv_32 + sv_33 + sv_34
 + sv_35 + sv_36 + sv_4 + sv_5 + sv_6 + sv_7 + sv_8 + sv_9 - yv_1_0 - yv_1_1
 - yv_1_2 - yv_1_3 >= 0
_C44: sv_0 + sv_1 + sv_10 + sv_11 + sv_12 + sv_13 + sv_15 + sv_16 + sv_17
 + sv_19 + sv_2 + sv_22 + sv_23 + sv_3 + sv_31 + sv_32 + sv_33 + sv_34 + sv_36
 + sv_39 + sv_4 + sv_5 + sv_6 + sv_7 + sv_8 + sv_9 - yv_2_0 - yv_2_1 - yv_2_2
 - yv_2_3 >= 0
_C45: sv_0 + sv_1 + sv_10 + sv_11 + sv_12 + sv_13 + sv_14 + sv_15 + sv_16
 + sv_17 + sv_19 + sv_2 + sv_22 + sv_3 + sv_31 + sv_32 + sv_33 + sv_34 + sv_35
 + sv_36 + sv_39 + sv_4 + sv_5 + sv_6 + sv_7 + sv_8 + sv_9 - yv_3_0 - yv_3_1
 - yv_3_2 - yv_3_3 >= 0
_C46: sv_0 + sv_1 + sv_10 + sv_11 + sv_12 + sv_13 + sv_14 + sv_15 + sv_16
 + sv_2 + sv_28 + sv_3 + sv_31 + sv_32 + sv_33 + sv_34 + sv_35 + sv_36 + sv_39
 + sv_4 + sv_5 + sv_6 + sv_7 + sv_8 + sv_9 - yv_4_0 - yv_4_1 - yv_4_2 - yv_4_3
 >= 0
_C47: sv_0 + sv_1 + sv_10 + sv_11 + sv_12 + sv_13 + sv_14 + sv_15 + sv_16
 + sv_2 + sv_25 + sv_28 + sv_3 + sv_31 + sv_32 + sv_33 + sv_34 + sv_35 + sv_36
 + sv_39 + sv_4 + sv_5 + sv_6 + sv_7 + sv_8 + sv_9 - yv_5_0 - yv_5_1 - yv_5_2
 - yv_5_3 >= 0
_C48: sv_0 + sv_1 + sv_10 + sv_11 + sv_12 + sv_13 + sv_14 + sv_15 + sv_16
 + sv_17 + sv_19 + sv_2 + sv_23 + sv_25 + sv_27 + sv_28 + sv_3 + sv_31 + sv_32
 + sv_33 + sv_34 + sv_35 + sv_36 + sv_37 + sv_38 + sv_39 + sv_4 + sv_5 + sv_6
 + sv_7 + sv_8 + sv_9 - yv_6_0 - yv_6_1 - yv_6_2 - yv_6_3 >= 0
_C49: sv_0 + sv_1 + sv_10 + sv_11 + sv_12 + sv_13 + sv_14 + sv_15 + sv_16
 + sv_19 + sv_25 + sv_26 + sv_27 + sv_28 + sv_29 + sv_3 + sv_30 + sv_31
 + sv_32 + sv_33 + sv_34 + sv_35 + sv_36 + sv_37 + sv_38 + sv_4 + sv_5 + sv_6
 + sv_7 + sv_8 + sv_9 - yv_7_0 - yv_7_1 - yv_7_2 - yv_7_3 >= 0
_C5: sv_3 <= 3
_C50: sv_0 + sv_1 + sv_10 + sv_11 + sv_12 + sv_13 + sv_14 + sv_15 + sv_16
 + sv_17 + sv_18 + sv_19 + sv_2 + sv_22 + sv_23 + sv_3 + sv_31 + sv_32 + sv_33
 + sv_34 + sv_35 + sv_36 + sv_37 + sv_4 + sv_5 + sv_6 + sv_7 + sv_8 + sv_9
 - yv_8_0 - yv_8_1 - yv_8_2 - yv_8_3 >= 0
_C51: sv_0 + sv_1 + sv_10 + sv_12 + sv_13 + sv_14 + sv_15 + sv_16 + sv_17
 + sv_18 + sv_19 + sv_2 + sv_20 + sv_21 + sv_22 + sv_23 + sv_24 + sv_25
 + sv_27 + sv_28 + sv_3 + sv_30 + sv_31 + sv_32 + sv_33 + sv_34 + sv_35
 + sv_36 + sv_37 + sv_38 + sv_4 + sv_5 + sv_6 + sv_7 + sv_8 + sv_9 - yv_9_0
 - yv_9_1 - yv_9_2 - yv_9_3 >= 0
_C52: sv_0 + sv_1 + sv_10 + sv_12 + sv_13 + sv_14 + sv_15 + sv_16 + sv_17
 + sv_18 + sv_19 + sv_2 + sv_20 + sv_21 + sv_22 + sv_23 + sv_24 + sv_3 + sv_31
 + sv_32 + sv_33 + sv_34 + sv_35 + sv_36 + sv_37 + sv_4 + sv_5 + sv_6 + sv_7
 + sv_8 + sv_9 - yv_10_0 - yv_10_1 - yv_10_2 - yv_10_3 >= 0
_C53: sv_0 + sv_1 + sv_11 + sv_12 + sv_13 + sv_2 + sv_3 + sv_39 + sv_4 + sv_5
 + sv_6 + sv_8 - yv_11_0 - yv_11_1 - yv_11_2 - yv_11_3 >= 0
_C54: sv_0 + sv_1 + sv_10 + sv_11 + sv_12 + sv_13 + sv_14 + sv_2 + sv_25
 + sv_27 + sv_28 + sv_3 + sv_31 + sv_32 + sv_33 + sv_34 + sv_35 + sv_36
 + sv_39 + sv_4 + sv_5 + sv_6 + sv_7 + sv_8 + sv_9 - yv_12_0 - yv_12_1
 - yv_12_2 - yv_12_3 >= 0
_C55: sv_0 + sv_1 + sv_10 + sv_11 + sv_12 + sv_13 + sv_14 + sv_15 + sv_16
 + sv_17 + sv_19 + sv_2 + sv_25 + sv_27 + sv_28 + sv_3 + sv_31 + sv_32 + sv_33
 + sv_34 + sv_35 + sv_36 + sv_38 + sv_39 + sv_4 + sv_5 + sv_6 + sv_7 + sv_8
 + sv_9 - yv_13_0 - yv_13_1 - yv_13_2 - yv_13_3 >= 0
_C56: sv_0 + sv_10 + sv_12 + sv_13 + sv_14 + sv_15 + sv_25 + sv_26 + sv_27
 + sv_28 + sv_29 + sv_3 + sv_30 + sv_31 + sv_32 + sv_33 + sv_34 + sv_35
 + sv_36 + sv_37 + sv_38 + sv_4 + sv_5 + sv_6 + sv_7 + sv_8 + sv_9 - yv_14_0
 - yv_14_1 - yv_14_2 - yv_14_3 >= 0
_C57: sv_0 + sv_1 + sv_10 + sv_13 + sv_14 + sv_15 + sv_16 + sv_17 + sv_18
 + sv_19 + sv_2 + sv_20 + sv_21 + sv_22 + sv_23 + sv_24 + sv_29 + sv_3 + sv_30
 + sv_31 + sv_32 + sv_33 + sv_34 + sv_35 + sv_36 + sv_37 + sv_38 + sv_4 + sv_5
 + sv_6 + sv_7 + sv_8 + sv_9 - yv_15_0 - yv_15_1 - yv_15_2 - yv_15_3 >= 0
_C58: sv_0 + sv_1 + sv_10 + sv_13 + sv_15 + sv_16 + sv_17 + sv_18 + sv_19
 + sv_2 + sv_20 + sv_21 + sv_22 + sv_23 + sv_24 + sv_3 + sv_30 + sv_31 + sv_32
 + sv_33 + sv_34 + sv_35 + sv_36 + sv_37 + sv_38 + sv_4 + sv_5 + sv_6 + sv_7
 + sv_8 + sv_9 - yv_16_0 - yv_16_1 - yv_16_2 - yv_16_3 >= 0
_C59: sv_0 + sv_1 + sv_10 + sv_13 + sv_15 + sv_16 + sv_17 + sv_18 + sv_19
 + sv_20 + sv_21 + sv_22 + sv_23 + sv_24 + sv_30 + sv_31 + sv_32 + sv_33
 + sv_34 + sv_35 + sv_36 + sv_37 + sv_38 + sv_6 + sv_7 + sv_8 + sv_9 - yv_17_0
 - yv_17_1 - yv_17_2 - yv_17_3 >= 0
_C6: sv_4 <= 3
_C60: sv_10 + sv_15 + sv_16 + sv_17 + sv_18 + sv_19 + sv_20 + sv_21 + sv_22
 + sv_23 + sv_24 + sv_31 + sv_32 + sv_33 + sv_34 + sv_35 + sv_36 + sv_37
 + sv_38 + sv_9 - yv_18_0 - yv_18_1 - yv_18_2 - yv_18_3 >= 0
_C61: sv_0 + sv_1 + sv_10 + sv_13 + sv_14 + sv_15 + sv_16 + sv_17 + sv_18
 + sv_19 + sv_20 + sv_21 + sv_22 + sv_23 + sv_24 + sv_29 + sv_3 + sv_30
 + sv_31 + sv_32 + sv_33 + sv_34 + sv_35 + sv_36 + sv_37 + sv_38 + sv_6 + sv_7
 + sv_8 + sv_9 - yv_19_0 - yv_19_1 - yv_19_2 - yv_19_3 >= 0
_C62: sv_15 + sv_16 + sv_17 + sv_18 + sv_19 + sv_20 + sv_21 + sv_22 + sv_23
 + sv_24 + sv_31 + sv_32 + sv_33 + sv_34 + sv_35 + sv_37 + sv_9 - yv_20_0
 - yv_20_1 - yv_20_2 - yv_20_3 >= 0
_C63: sv_10 + sv_15 + sv_16 + sv_17 + sv_18 + sv_19 + sv_20 + sv_21 + sv_22
 + sv_23 + sv_24 + sv_31 + sv_32 + sv_33 + sv_37 + sv_9 - yv_21_0 - yv_21_1
 - yv_21_2 - yv_21_3 >= 0
_C64: sv_10 + sv_15 + sv_16 + sv_17 + sv_18 + sv_19 + sv_20 + sv_21 + sv_22
 + sv_23 + sv_24 + sv_31 + sv_32 + sv_33 + sv_34 + sv_36 + sv_37 + sv_9
 - yv_22_0 - yv_22_1 - yv_22_2 - yv_22_3 >= 0
_C65: sv_10 + sv_15 + sv_16 + sv_17 + sv_18 + sv_19 + sv_20 + sv_21 + sv_22
 + sv_23 + sv_24 + sv_31 + sv_32 + sv_33 + sv_34 + sv_35 + sv_36 + sv_37
 + sv_8 + sv_9 - yv_23_0 - yv_23_1 - yv_23_2 - yv_23_3 >= 0
_C66: sv_10 + sv_15 + sv_16 + sv_17 + sv_18 + sv_19 + sv_20 + sv_21 + sv_22
 + sv_23 + sv_24 + sv_31 + sv_32 + sv_33 + sv_37 + sv_9 - yv_24_0 - yv_24_1
 - yv_24_2 - yv_24_3 >= 0
_C67: sv_12 + sv_13 + sv_14 + sv_25 + sv_26 + sv_27 + sv_28 + sv_29 + sv_30
 + sv_31 + sv_32 + sv_33 + sv_34 + sv_35 + sv_36 + sv_38 + sv_6 + sv_7 + sv_9
 - yv_25_0 - yv_25_1 - yv_25_2 - yv_25_3 >= 0
_C68: sv_14 + sv_25 + sv_26 + sv_27 + sv_28 + sv_29 + sv_30 + sv_31 + sv_32
 + sv_34 + sv_35 + sv_36 + sv_38 + sv_7 - yv_26_0 - yv_26_1 - yv_26_2
 - yv_26_3 >= 0
_C69: sv_12 + sv_13 + sv_14 + sv_25 + sv_26 + sv_27 + sv_28 + sv_29 + sv_30
 + sv_31 + sv_32 + sv_33 + sv_34 + sv_35 + sv_36 + sv_38 + sv_6 + sv_7 + sv_9
 - yv_27_0 - yv_27_1 - yv_27_2 - yv_27_3 >= 0
_C7: sv_5 <= 3
_C70: sv_0 + sv_12 + sv_13 + sv_14 + sv_25 + sv_26 + sv_27 + sv_28 + sv_29
 + sv_30 + sv_32 + sv_33 + sv_34 + sv_35 + sv_36 + sv_38 + sv_4 + sv_5 + sv_6
 + sv_7 + sv_9 - yv_28_0 - yv_28_1 - yv_28_2 - yv_28_3 >= 0
_C71: sv_14 + sv_25 + sv_26 + sv_27 + sv_28 + sv_29 + sv_30 + sv_31 + sv_32
 + sv_33 + sv_34 + sv_35 + sv_36 + sv_37 + sv_38 + sv_7 - yv_29_0 - yv_29_1
 - yv_29_2 - yv_29_3 >= 0
_C72: sv_14 + sv_15 + sv_16 + sv_17 + sv_18 + sv_19 + sv_25 + sv_26 + sv_27
 + sv_28 + sv_29 + sv_30 + sv_31 + sv_32 + sv_33 + sv_34 + sv_35 + sv_36
 + sv_37 + sv_38 + sv_7 + sv_9 - yv_30_0 - yv_30_1 - yv_30_2 - yv_30_3 >= 0
_C73: sv_0 + sv_1 + sv_10 + sv_12 + sv_13 + sv_14 + sv_15 + sv_16 + sv_17
 + sv_18 + sv_19 + sv_20 + sv_21 + sv_22 + sv_23 + sv_24 + sv_25 + sv_26
 + sv_27 + sv_29 + sv_3 + sv_30 + sv_31 + sv_32 + sv_33 + sv_34 + sv_35
 + sv_36 + sv_37 + sv_38 + sv_4 + sv_5 + sv_6 + sv_7 + sv_8 + sv_9 - yv_31_0
 - yv_31_1 - yv_31_2 - yv_31_3 >= 0
_C74: sv_0 + sv_1 + sv_10 + sv_12 + sv_13 + sv_14 + sv_15 + sv_16 + sv_17
 + sv_18 + sv_19 + sv_2 + sv_20 + sv_21 + sv_22 + sv_23 + sv_24 + sv_25
 + sv_26 + sv_27 + sv_28 + sv_29 + sv_3 + sv_30 + sv_31 + sv_32 + sv_33
 + sv_34 + sv_35 + sv_36 + sv_37 + sv_38 + sv_4 + sv_5 + sv_6 + sv_7 + sv_8
 + sv_9 - yv_32_0 - yv_32_1 - yv_32_2 - yv_32_3 >= 0
_C75: sv_0 + sv_1 + sv_10 + sv_12 + sv_13 + sv_14 + sv_15 + sv_16 + sv_17
 + sv_18 + sv_19 + sv_2 + sv_20 + sv_21 + sv_22 + sv_23 + sv_24 + sv_25
 + sv_27 + sv_28 + sv_29 + sv_3 + sv_30 + sv_31 + sv_32 + sv_33 + sv_34
 + sv_35 + sv_36 + sv_37 + sv_38 + sv_4 + sv_5 + sv_6 + sv_7 + sv_8 + sv_9
 - yv_33_0 - yv_33_1 - yv_33_2 - yv_33_3 >= 0
_C76: sv_0 + sv_1 + sv_10 + sv_12 + sv_13 + sv_14 + sv_15 + sv_16 + sv_17
 + sv_18 + sv_19 + sv_2 + sv_20 + sv_22 + sv_23 + sv_25 + sv_26 + sv_27
 + sv_28 + sv_29 + sv_3 + sv_30 + sv_31 + sv_32 + sv_33 + sv_34 + sv_35
 + sv_36 + sv_37 + sv_38 + sv_4 + sv_5 + sv_6 + sv_7 + sv_8 + sv_9 - yv_34_0
 - yv_34_1 - yv_34_2 - yv_34_3 >= 0
_C77: sv_0 + sv_1 + sv_10 + sv_12 + sv_13 + sv_14 + sv_15 + sv_16 + sv_17
 + sv_18 + sv_19 + sv_20 + sv_22 + sv_23 + sv_25 + sv_26 + sv_27 + sv_28
 + sv_29 + sv_3 + sv_30 + sv_31 + sv_32 + sv_33 + sv_34 + sv_35 + sv_36
 + sv_37 + sv_38 + sv_4 + sv_5 + sv_6 + sv_7 + sv_8 + sv_9 - yv_35_0 - yv_35_1
 - yv_35_2 - yv_35_3 >= 0
_C78: sv_0 + sv_1 + sv_10 + sv_12 + sv_13 + sv_14 + sv_15 + sv_16 + sv_17
 + sv_18 + sv_19 + sv_2 + sv_22 + sv_23 + sv_25 + sv_26 + sv_27 + sv_28
 + sv_29 + sv_3 + sv_30 + sv_31 + sv_32 + sv_33 + sv_34 + sv_35 + sv_36
 + sv_37 + sv_38 + sv_4 + sv_5 + sv_6 + sv_7 + sv_8 + sv_9 - yv_36_0 - yv_36_1
 - yv_36_2 - yv_36_3 >= 0
_C79: sv_10 + sv_14 + sv_15 + sv_16 + sv_17 + sv_18 + sv_19 + sv_20 + sv_21
 + sv_22 + sv_23 + sv_24 + sv_26 + sv_29 + sv_30 + sv_31 + sv_32 + sv_33
 + sv_34 + sv_35 + sv_36 + sv_37 + sv_38 + sv_6 + sv_7 + sv_8 + sv_9 - yv_37_0
 - yv_37_1 - yv_37_2 - yv_37_3 >= 0
_C8: sv_6 <= 3
_C80: sv_13 + sv_14 + sv_15 + sv_16 + sv_17 + sv_18 + sv_19 + sv_25 + sv_26
 + sv_27 + sv_28 + sv_29 + sv_30 + sv_31 + sv_32 + sv_33 + sv_34 + sv_35
 + sv_36 + sv_37 + sv_38 + sv_6 + sv_7 + sv_9 - yv_38_0 - yv_38_1 - yv_38_2
 - yv_38_3 >= 0
_C81: sv_0 + sv_11 + sv_12 + sv_13 + sv_2 + sv_3 + sv_39 + sv_4 + sv_5 + sv_6
 - yv_39_0 - yv_39_1 - yv_39_2 - yv_39_3 >= 0
_C9: sv_7 <= 3
Bounds
0 <= sv_0 <= 4
0 <= sv_1 <= 4
0 <= sv_10 <= 4
0 <= sv_11 <= 4
0 <= sv_12 <= 4
0 <= sv_13 <= 4
0 <= sv_14 <= 4
0 <= sv_15 <= 4
0 <= sv_16 <= 4
0 <= sv_17 <= 4
0 <= sv_18 <= 4
0 <= sv_19 <= 4
0 <= sv_2 <= 4
0 <= sv_20 <= 4
0 <= sv_21 <= 4
0 <= sv_22 <= 4
0 <= sv_23 <= 4
0 <= sv_24 <= 4
0 <= sv_25 <= 4
0 <= sv_26 <= 4
0 <= sv_27 <= 4
0 <= sv_28 <= 4
0 <= sv_29 <= 4
0 <= sv_3 <= 4
0 <= sv_30 <= 4
0 <= sv_31 <= 4
0 <= sv_32 <= 4
0 <= sv_33 <= 4
0 <= sv_34 <= 4
0 <= sv_35 <= 4
0 <= sv_36 <= 4
0 <= sv_37 <= 4
0 <= sv_38 <= 4
0 <= sv_39 <= 4
0 <= sv_4 <= 4
0 <= sv_5 <= 4
0 <= sv_6 <= 4
0 <= sv_7 <= 4
0 <= sv_8 <= 4
0 <= sv_9 <= 4
Generals
sv_0
sv_1
sv_10
sv_11
sv_12
sv_13
sv_14
sv_15
sv_16
sv_17
sv_18
sv_19
sv_2
sv_20
sv_21
sv_22
sv_23
sv_24
sv_25
sv_26
sv_27
sv_28
sv_29
sv_3
sv_30
sv_31
sv_32
sv_33
sv_34
sv_35
sv_36
sv_37
sv_38
sv_39
sv_4
sv_5
sv_6
sv_7
sv_8
sv_9
Binaries
yv_0_0
yv_0_1
yv_0_2
yv_0_3
yv_10_0
yv_10_1
yv_10_2
yv_10_3
yv_11_0
yv_11_1
yv_11_2
yv_11_3
yv_12_0
yv_12_1
yv_12_2
yv_12_3
yv_13_0
yv_13_1
yv_13_2
yv_13_3
yv_14_0
yv_14_1
yv_14_2
yv_14_3
yv_15_0
yv_15_1
yv_15_2
yv_15_3
yv_16_0
yv_16_1
yv_16_2
yv_16_3
yv_17_0
yv_17_1
yv_17_2
yv_17_3
yv_18_0
yv_18_1
yv_18_2
yv_18_3
yv_19_0
yv_19_1
yv_19_2
yv_19_3
yv_1_0
yv_1_1
yv_1_2
yv_1_3
yv_20_0
yv_20_1
yv_20_2
yv_20_3
yv_21_0
yv_21_1
yv_21_2
yv_21_3
yv_22_0
yv_22_1
yv_22_2
yv_22_3
yv_23_0
yv_23_1
yv_23_2
yv_23_3
yv_24_0
yv_24_1
yv_24_2
yv_24_3
yv_25_0
yv_25_1
yv_25_2
yv_25_3
yv_26_0
yv_26_1
yv_26_2
yv_26_3
yv_27_0
yv_27_1
yv_27_2
yv_27_3
yv_28_0
yv_28_1
yv_28_2
yv_28_3
yv_29_0
yv_29_1
yv_29_2
yv_29_3
yv_2_0
yv_2_1
yv_2_2
yv_2_3
yv_30_0
yv_30_1
yv_30_2
yv_30_3
yv_31_0
yv_31_1
yv_31_2
yv_31_3
yv_32_0
yv_32_1
yv_32_2
yv_32_3
yv_33_0
yv_33_1
yv_33_2
yv_33_3
yv_34_0
yv_34_1
yv_34_2
yv_34_3
yv_35_0
yv_35_1
yv_35_2
yv_35_3
yv_36_0
yv_36_1
yv_36_2
yv_36_3
yv_37_0
yv_37_1
yv_37_2
yv_37_3
yv_38_0
yv_38_1
yv_38_2
yv_38_3
yv_39_0
yv_39_1
yv_39_2
yv_39_3
yv_3_0
yv_3_1
yv_3_2
yv_3_3
yv_4_0
yv_4_1
yv_4_2
yv_4_3
yv_5_0
yv_5_1
yv_5_2
yv_5_3
yv_6_0
yv_6_1
yv_6_2
yv_6_3
yv_7_0
yv_7_1
yv_7_2
yv_7_3
yv_8_0
yv_8_1
yv_8_2
yv_8_3
yv_9_0
yv_9_1
yv_9_2
yv_9_3
End
